language Essence 1.3

letting bot_end be [63393; int(1)]
letting bot_start be [1718; int(1)]
letting buffer_col be 2
letting buffer_row be 2
letting corridor_size be 8
letting n_shelves_col be 52
letting n_shelves_row be 14
letting shelf_col_size be 2
letting shelf_row_size be 1
